
******************************************************************************
This program contains Ipopt, a library for large-scale nonlinear optimization.
 Ipopt is released as open source code under the Eclipse Public License (EPL).
         For more information visit https://github.com/coin-or/Ipopt
******************************************************************************

This is Ipopt version 3.13.4, running with linear solver mumps.
NOTE: Other linear solvers might be more efficient (see Ipopt documentation).

Number of nonzeros in equality constraint Jacobian...:     1536
Number of nonzeros in inequality constraint Jacobian.:        0
Number of nonzeros in Lagrangian Hessian.............:        0

Total number of variables............................:       96
                     variables with only lower bounds:        0
                variables with lower and upper bounds:       90
                     variables with only upper bounds:        0
Total number of equality constraints.................:       16
Total number of inequality constraints...............:        0
        inequality constraints with only lower bounds:        0
   inequality constraints with lower and upper bounds:        0
        inequality constraints with only upper bounds:        0

iter    objective    inf_pr   inf_du lg(mu)  ||d||  lg(rg) alpha_du alpha_pr  ls
   0  1.0000000e+00 1.26e-02 0.00e+00   0.0 0.00e+00    -  0.00e+00 0.00e+00   0
   1  1.0000000e+00 1.53e-02 3.82e+01  -1.7 1.38e+00    -  9.36e-01 4.61e-02f  1
   2  1.0000000e+00 2.94e+00 7.28e+01  -0.8 3.15e+00    -  1.00e+00 2.62e-01f  1
   3  1.0000000e+00 1.44e+00 4.87e+04  -1.5 1.98e+00    -  7.96e-01 1.00e+00h  1
   4  1.0000000e+00 1.79e+00 2.14e+03  -1.5 6.64e-01    -  1.00e+00 1.00e+00h  1
   5  1.0000000e+00 1.93e+00 1.96e+03  -1.5 1.01e+00    -  6.33e-01 1.54e-01h  2
   6  1.0000000e+00 2.05e+00 1.69e+03  -1.5 7.86e-01    -  5.39e-01 1.47e-01h  2
